============================[ Problem Statistics ]=============================|                                                                             ||  Number of variables:          4242                                         ||  Number of clauses:           10462                                         ||  Parse time:                   0.85 s                                       ||                                                                             |============================[ Search Statistics ]==============================| Conflicts |          ORIGINAL         |          LEARNT          | Progress ||           |    Vars  Clauses Literals |    Limit  Clauses Lit/Cl |          |===============================================================================|       100 |    1591     6667  1354598 |     2444      100     53 | 62.501 % ||       250 |    1591     6667  1354598 |     2689      250     75 | 62.495 % |===============================================================================restarts              : 4conflicts             : 457            (353 /sec)decisions             : 816            (0.00 % random) (631 /sec)propagations          : 13759          (10633 /sec)conflict literals     : 38806          (94.45 % deleted)CPU time              : 1.294 sSATISFIABLE